 Compiled for linux_x86_64_ifort14 on Wed, 16 Mar 2016 15:52:45 +0000
 from code version
 203e84763863+ Castep161_branch Fri, 04 Mar 2016 19:21:07 +0000
 Compiler: Intel Fortran 14.0.2.144; Optimisation: fast
 MATHLIBS: Intel MKL(11.3.2) (LAPACK version 3.5.0)
 FFT Lib : fftw3 version fftw-3.3.3-sse2-avx
 Fundamental constants values: CODATA 2010

 Run started: Tue, 29 Mar 2016 14:49:02 +0100
 |  D D D D    F F F F F  P P P P     T T T T T    |
 |  D       D  F          P       P       T        |
 |  D       D  F F F F    P P P P         T        |
 |  D       D  F          P               T        |
 |  D D D D    F          P               T        |
 | Welcome to Castep Linear Response (DFPT)        |
 | Copyright (c) 2006 - 2015                       |
 | Please cite the following publications in all   |
 | work arising from your use of CASTEP LR.        |
 | K. Refson, S. J. Clark and P. R. Tulip          |
 | Variational density functional perturbation     |
 | theory for dielectrics and lattice dynamics     |
 | Phys. Rev. B 73(15), 155114 (2006)              |

 Pseudo atomic calculation performed for As 4s2 4p3

 Converged in 25 iterations to a total energy of -167.6844 eV

[...]

 Calculation parallelised over 12 processes.
 Data is distributed by G-vector(6-way) and k-point(2-way)

 ************************************ Title ************************************

 ***************************** General Parameters ******************************

 output verbosity                               : normal  (1)
 write checkpoint data to                       : InAs.check
 type of calculation                            : Phonon followed by E-field
 stress calculation                             : off
 density difference calculation                 : off
 electron localisation func (ELF) calculation   : off
 Hirshfeld analysis                             : off
 unlimited duration calculation
 timing information                             : on
 write final potential to formatted file        : off
 write final density to formatted file          : off
 write BibTeX reference list                    : on
 write OTFG pseudopotential files               : on
 checkpoint writing                             : both castep_bin and check files
 random number generator seed                   : randomised (144902440)

 *********************** Exchange-Correlation Parameters ***********************

 using functional                               : Local Density Approximation
 DFT+D: Semi-empirical dispersion correction    : off

 ************************* Pseudopotential Parameters **************************

 pseudopotential representation                 : reciprocal space
 <beta|phi> representation                      : reciprocal space
 spin-orbit coupling                            : off

 **************************** Basis Set Parameters *****************************

 basis set accuracy                             : FINE
 finite basis set correction                    : none

 **************************** Electronic Parameters ****************************

 number of  electrons                           :  8.000
 net charge of system                           :  0.000
 treating system as non-spin-polarized
 number of bands                                :          4

 ********************* Electronic Minimization Parameters **********************

 Method: Treating system as non-metallic,
         and number of  SD  steps               :          1
         and number of  CG  steps               :          4

 total energy / atom convergence tol.           : 0.2219E-09   eV
 max force / atom convergence tol.              : ignored
 periodic dipole correction                     : NONE

 *********************** Population Analysis Parameters ************************

 Population analysis with cutoff                :  3.000       A

 ****************************** Phonon Parameters ******************************

 phonon calculation method                      : linear response
 phonon convergence tolerance                   : 0.1000E-04   eV/A**2
 preconditioning scheme                         : TPA
 fine phonon calculation method                 : none
 acoustic phonon sum rule                       : correct D(q) in recip-space
 Born effective charges                         : calculated
 Born charge sum rule                           : explicitly enforced
 Raman intensities                              : not calculated
 phonon extra output                            : real-space force constants
 phonon k-points                                : use reduced set
 phonon DOS                                     : not calculated
 no timed backups

 ***************************** E-Field Parameters ******************************

 E-field convergence tolerance                  : 0.1000E-04   A**3
 band convergence tolerance                     : 0.1000E-08   eV

                                      Unit Cell
        Real Lattice(A)                      Reciprocal Lattice(1/A)
   3.0290000   3.0290000   0.0000000        1.0371716   1.0371716  -1.0371716
   3.0290000   0.0000000   3.0290000        1.0371716  -1.0371716   1.0371716
   0.0000000   3.0290000   3.0290000       -1.0371716   1.0371716   1.0371716

                       Lattice parameters(A)       Cell Angles
                    a =    4.283653          alpha =   60.000000
                    b =    4.283653          beta  =   60.000000
                    c =    4.283653          gamma =   60.000000

                       Current cell volume =   55.581187       A**3

                                     Cell Contents
                         Total number of ions in cell =    2
                      Total number of species in cell =    2
                        Max number of any one species =    1

            x  Element    Atom        Fractional coordinates of atoms  x
            x            Number           u          v          w      x
            x  As           1         0.250000   0.250000   0.250000   x
            x  In           1         0.000000   0.000000   0.000000   x

                         No user defined ionic velocities

                                   Details of Species

                               Mass of species in AMU
                                    As   74.9216000
                                    In  114.8180000

                          Electric Quadrupole Moment (Barn)
                                    As    0.3140000 Isotope 75
                                    In    0.7700000 Isotope115

                          Files used for pseudopotentials:
                                    As As_00.recpot
                                    In In_00.recpot

                              k-Points For BZ Sampling
                       MP grid size for SCF calculation is  5  5  5
                            with an offset of   0.000  0.000  0.000
                       Number of kpoints used =            10

                               Symmetry and Constraints

                      Maximum deviation from symmetry =  0.00000         ANG

                      Number of symmetry operations   =          24
                      Number of ionic constraints     =           3
                      Point group of crystal =    30: Td, -43m, -4 3 m
                      Space group of crystal =   216: F-43m, F -4 2 3

             Set iprint > 1 for details on symmetry rotations/translations

                         Centre of mass is constrained
             Set iprint > 1 for details of linear ionic constraints

                         Number of cell constraints= 5
                         Cell constraints are:  1 1 1 0 0 0

                         External pressure/stress (GPa)
                          0.00000   0.00000   0.00000
                                    0.00000   0.00000
                                              0.00000

Final energy =  -228.9320588393     eV
(energy not corrected for finite basis set)

Writing analysis data to InAs.castep_bin

Writing model to InAs.check

 Efield perturbation    1:  X                                             2.74s
  Parallel strategy changed for perturbation using 27 k-points
  Data is distributed by G-vector(1-way) and k-point(9-way) and band(1-way)
  | Requirements will fluctuate during execution and may exceed these estimates |
 Perturbation    1 (of    2): As    1 X at q=( 0.000, 0.000, 0.000):      5.47s
  Parallel strategy changed for perturbation using 27 k-points
  Data is distributed by G-vector(1-way) and k-point(9-way) and band(1-way)
  | Requirements will fluctuate during execution and may exceed these estimates |
 Perturbation    2 (of    2): In    1 X at q=( 0.000, 0.000, 0.000):      8.41s

 Phonon calculation: q-point   1 (of   10) (-0.400, 0.000,-0.400):       10.22s
 Perturbation    1 (of    4): As    1 X at q=(-0.400, 0.000,-0.400):     10.23s
  Parallel strategy changed for perturbation using 125 k-points
  Data is distributed by G-vector(1-way) and k-point(12-way) and band(1-way)
  | Requirements will fluctuate during execution and may exceed these estimates |
 Perturbation    2 (of    4): In    1 X at q=(-0.400, 0.000,-0.400):     13.72s
 Perturbation    3 (of    4): As    1 Y at q=(-0.400, 0.000,-0.400):     16.69s
  Parallel strategy changed for perturbation using 45 k-points
  Data is distributed by G-vector(1-way) and k-point(12-way) and band(1-way)
 Perturbation    4 (of    4): In    1 Y at q=(-0.400, 0.000,-0.400):     19.11s

 Phonon calculation: q-point   2 (of   10) (-0.400, 0.000, 0.000):       20.74s
 Perturbation    1 (of    2): As    1 X at q=(-0.400, 0.000, 0.000):     20.75s
  Parallel strategy changed for perturbation using 75 k-points
  Data is distributed by G-vector(1-way) and k-point(12-way) and band(1-way)
 Perturbation    2 (of    2): In    1 X at q=(-0.400, 0.000, 0.000):     23.15s

 Phonon calculation: q-point   3 (of   10) (-0.200,-0.400, 0.200):       25.60s
 Perturbation    1 (of    6): As    1 X at q=(-0.200,-0.400, 0.200):     25.61s
  Parallel strategy changed for perturbation using 125 k-points
  Data is distributed by G-vector(1-way) and k-point(12-way) and band(1-way)
 Perturbation    2 (of    6): In    1 X at q=(-0.200,-0.400, 0.200):     29.12s
 Perturbation    3 (of    6): As    1 Y at q=(-0.200,-0.400, 0.200):     32.17s
 Perturbation    4 (of    6): In    1 Y at q=(-0.200,-0.400, 0.200):     35.42s
 Perturbation    5 (of    6): As    1 Z at q=(-0.200,-0.400, 0.200):     38.22s
 Perturbation    6 (of    6): In    1 Z at q=(-0.200,-0.400, 0.200):     41.17s

 Phonon calculation: q-point   4 (of   10) (-0.200, 0.000,-0.200):       44.11s
 Perturbation    1 (of    4): As    1 X at q=(-0.200, 0.000,-0.200):     44.12s
  Parallel strategy changed for perturbation using 125 k-points
  Data is distributed by G-vector(1-way) and k-point(12-way) and band(1-way)
 Perturbation    2 (of    4): In    1 X at q=(-0.200, 0.000,-0.200):     47.75s
 Perturbation    3 (of    4): As    1 Y at q=(-0.200, 0.000,-0.200):     51.10s
  Parallel strategy changed for perturbation using 45 k-points
[...]
 +     6     215.694525   a                                                   +
 +        Character table from group theory analysis of eigenvectors          +
 +                           Point Group =  30, Td                            +
 +  Rep  Mul |    E                                                           +
 + a       6 |    1                                                           +
 +  q-pt=  444 (  0.480000 -0.280000  0.080000)     0.0030720000              +
 +  Acoustic sum rule correction <   0.006623 cm-1 applied                    +
 +     N      Frequency irrep.                                                +
 +                (cm-1)                                                      +
 +     1      70.217947   a                                                   +
 +     2      87.646410   a                                                   +
 +     3     146.868001   a                                                   +
 +     4     184.714770   a                                                   +
 +     5     202.685591   a                                                   +
 +     6     214.728180   a                                                   +
 +        Character table from group theory analysis of eigenvectors          +
 +                           Point Group =  30, Td                            +
 +  Rep  Mul |    E                                                           +
 + a       6 |    1                                                           +
 +  q-pt=  445 (  0.480000 -0.160000 -0.160000)     0.0015360000              +
 +  Acoustic sum rule correction <   0.006644 cm-1 applied                    +
 +     N      Frequency irrep.                                                +
 +                (cm-1)                                                      +
 +     1      58.930507   a                                                   +
 +     2      72.853538   b                                                   +
 +     3     136.322848   b                                                   +
 +     4     193.671792   b                                                   +
 +     5     204.108053   a                                                   +
 +     6     215.829322   b                                                   +
 +        Character table from group theory analysis of eigenvectors          +
 +                           Point Group =  30, Td                            +
 +  Rep  Mul |    E   m                                                       +
 + a       2 |    1  -1                                                       +
 + b       4 |    1   1                                                       +
 +  q-pt=  446 (  0.480000 -0.040000 -0.240000)     0.0030720000              +
 +  Acoustic sum rule correction <   0.007541 cm-1 applied                    +
 +     N      Frequency irrep.                                                +
 +                (cm-1)                                                      +
 +     1      64.126616   a                                                   +
 +     2      81.995137   a                                                   +
 +     3     137.415422   a                                                   +
 +     4     191.374394   a                                                   +
 +     5     204.050032   a                                                   +
 +     6     215.421907   a                                                   +
 +        Character table from group theory analysis of eigenvectors          +
 +                           Point Group =  30, Td                            +
 +  Rep  Mul |    E                                                           +
 + a       6 |    1                                                           +
 +  q-pt=  447 (  0.480000 -0.040000 -0.120000)     0.0030720000              +
 +  Acoustic sum rule correction <   0.008697 cm-1 applied                    +
 +     N      Frequency irrep.                                                +
 +                (cm-1)                                                      +
 +     1      56.646203   a                                                   +
 +     2      63.596337   a                                                   +
 +     3     147.565217   a                                                   +
 +     4     194.231325   a                                                   +
 +     5     205.896318   a                                                   +
 +     6     211.357858   a                                                   +
 +        Character table from group theory analysis of eigenvectors          +
 +                           Point Group =  30, Td                            +
 +  Rep  Mul |    E                                                           +
 + a       6 |    1                                                           +
 +  q-pt=  448 (  0.480000  0.000000 -0.280000)     0.0015360000              +
 +  Acoustic sum rule correction <   0.007398 cm-1 applied                    +
 +     N      Frequency irrep.                                                +
 +                (cm-1)                                                      +
 +     1      66.083837   a                                                   +
 +     2      85.224836   b                                                   +
 +     3     142.122459   b                                                   +
 +     4     189.489808   b                                                   +
 +     5     203.116159   a                                                   +
 +     6     214.844614   b                                                   +
 +        Character table from group theory analysis of eigenvectors          +
 +                           Point Group =  30, Td                            +
 +  Rep  Mul |    E   m                                                       +
 + a       2 |    1  -1                                                       +
 + b       4 |    1   1                                                       +
 +  q-pt=  449 (  0.480000  0.000000  0.120000)     0.0015360000              +
 +  Acoustic sum rule correction <   0.008754 cm-1 applied                    +
 +     N      Frequency irrep.                                                +
 +                (cm-1)                                                      +
 +     1      57.242530   a                                                   +
 +     2      65.937493   b                                                   +
 +     3     143.617034   b                                                   +
 +     4     195.146890   b                                                   +
 +     5     205.729624   a                                                   +
 +     6     212.214342   b                                                   +
 +        Character table from group theory analysis of eigenvectors          +
 +                           Point Group =  30, Td                            +
 +  Rep  Mul |    E   m                                                       +
 + a       2 |    1  -1                                                       +
 + b       4 |    1   1                                                       +
 +  q-pt=  450 (  0.480000  0.000000  0.200000)     0.0015360000              +
 +  Acoustic sum rule correction <   0.007954 cm-1 applied                    +
 +     N      Frequency irrep.                                                +
 +                (cm-1)                                                      +
 +     1      62.154241   a                                                   +
 +     2      78.807590   b                                                   +
 +     3     135.787092   b                                                   +
 +     4     193.512509   b                                                   +
 +     5     204.417341   a                                                   +
 +     6     215.189886   b                                                   +
 +        Character table from group theory analysis of eigenvectors          +
 +                           Point Group =  30, Td                            +
 +  Rep  Mul |    E   m                                                       +
 + a       2 |    1  -1                                                       +
 + b       4 |    1   1                                                       +
 +  q-pt=  451 (  0.480000  0.200000  0.040000)     0.0030720000              +
 +  Acoustic sum rule correction <   0.007921 cm-1 applied                    +
 +     N      Frequency irrep.                                                +
 +                (cm-1)                                                      +
 +     1      61.257292   a                                                   +
 +     2      75.528206   a                                                   +
 +     3     133.871776   a                                                   +
 +     4     195.058856   a                                                   +
 +     5     204.694175   a                                                   +
 +     6     215.199871   a                                                   +
 +        Character table from group theory analysis of eigenvectors          +
 +                           Point Group =  30, Td                            +
 +  Rep  Mul |    E                                                           +
 + a       6 |    1                                                           +
 +  q-pt=  452 (  0.480000  0.240000  0.480000)     0.0015360000              +
 +  Acoustic sum rule correction <   0.003042 cm-1 applied                    +
 +     N      Frequency irrep.                                                +
 +                (cm-1)                                                      +
 +     1      64.104858   a                                                   +
 +     2      81.640716   b                                                   +
 +     3     135.761278   b                                                   +
 +     4     193.220975   b                                                   +
 +     5     203.794402   a                                                   +
 +     6     215.309298   b                                                   +
 +        Character table from group theory analysis of eigenvectors          +
 +                           Point Group =  30, Td                            +
 +  Rep  Mul |    E   m                                                       +
 + a       2 |    1  -1                                                       +
 + b       4 |    1   1                                                       +
 +  q-pt=  453 (  0.480000  0.280000 -0.280000)     0.0030720000              +
 +  Acoustic sum rule correction <   0.002594 cm-1 applied                    +
 +     N      Frequency irrep.                                                +
 +                (cm-1)                                                      +
 +     1      77.925465   a                                                   +
 +     2      93.363161   a                                                   +
 +     3     144.304695   a                                                   +
 +     4     178.988169   a                                                   +
 +     5     202.625123   a                                                   +
 +     6     215.943216   a                                                   +
 +        Character table from group theory analysis of eigenvectors          +
 +                           Point Group =  30, Td                            +
 +  Rep  Mul |    E                                                           +
 + a       6 |    1                                                           +
 +  q-pt=  454 (  0.480000  0.360000  0.120000)     0.0015360000              +
 +  Acoustic sum rule correction <   0.003640 cm-1 applied                    +
 +     N      Frequency irrep.                                                +
 +                (cm-1)                                                      +
 +     1      69.604375   a                                                   +
 +     2      73.799536   a                                                   +
 +     3     134.706893   a                                                   +
 +     4     195.973378   a                                                   +
 +     5     203.622528   a                                                   +
 +     6     214.808202   a                                                   +
 +        Character table from group theory analysis of eigenvectors          +
 +                           Point Group =  30, Td                            +
 +  Rep  Mul |    E                                                           +
 + a       6 |    1                                                           +
 +  q-pt=  455 (  0.480000  0.480000  0.480000)     0.0005120000              +
 +  Acoustic sum rule correction <   0.002594 cm-1 applied                    +
 +     N      Frequency irrep.                                                +
 +                (cm-1)                                                      +
 +     1      52.385345   a                                                   +
 +     2      52.385345   a                                                   +
 +     3     153.983155   b                                                   +
 +     4     197.529834   b                                                   +
 +     5     206.730982   a                                                   +
 +     6     206.730982   a                                                   +
 +        Character table from group theory analysis of eigenvectors          +
 +                           Point Group =  30, Td                            +
 +  Rep  Mul |    E   m   3                                                   +
 + a       2 |    2   0  -1                                                   +
 + b       2 |    1   1   1                                                   +

        Optical Permittivity (f->infinity)             DC Permittivity (f=0)
        71.24252     0.00000     0.00000        73.95459     0.00000     0.00000
         0.00000    71.24252     0.00000         0.00000    73.95459     0.00000
         0.00000     0.00000    71.24252         0.00000     0.00000    73.95459

                                    Polarisabilities (A**3)
                Optical (f->infinity)                       Static  (f=0)
       310.68340     0.00000     0.00000       322.67892     0.00000     0.00000
         0.00000   310.68340     0.00000         0.00000   322.67892     0.00000
         0.00000     0.00000   310.68340         0.00000     0.00000   322.67892
                   Born Effective Charges
   As      1        -2.48496     0.00000     0.00000
                     0.00000    -2.48496     0.00000
                     0.00000     0.00000    -2.48496
   In      1         2.48496     0.00000     0.00000
                     0.00000     2.48496     0.00000
                     0.00000     0.00000     2.48496

 ***************** Symmetrised Forces *****************
 *            Cartesian components (eV/A)             *
 *                   x            y            z      *
 * As        1      0.00000      0.00000      0.00000 *
 * In        1      0.00000      0.00000      0.00000 *

[...]

 Pseudo atomic calculation performed for In 5s2 5p1

 Converged in 24 iterations to a total energy of -51.1641 eV

Charge spilling parameter for spin component 1 = 0.24%

     Atomic Populations (Mulliken)
Species   Ion     s      p      d      f     Total  Charge (e)
  As       1     1.33   3.82   0.00   0.00   5.15    -0.15
  In       1     1.24   1.60   0.00   0.00   2.85     0.15

            Bond              Population      Length (A)
         As 1 -- In 1              2.33        2.62319

Writing analysis data to InAs.castep_bin

Writing model to InAs.check

 A BibTeX formatted list of references used in this run has been written to
 InAs.bib

Initialisation time =      0.92 s
Calculation time    =      1.19 s
Finalisation time   =      0.03 s
Total time          =      2.14 s

Overall parallel efficiency rating: Mediocre (51%)

Data was distributed by:-
G-vector (6-way); efficiency rating: Mediocre (56%)
k-point (2-way); efficiency rating: Good (78%)

Parallel notes:
1) Calculation only took 2.1 s, so efficiency estimates may be inaccurate.