 Compiled for linux_x86_64_ifort14 on Wed, 16 Mar 2016 15:52:45 +0000
 from code version
 203e84763863+ Castep161_branch Fri, 04 Mar 2016 19:21:07 +0000
 Compiler: Intel Fortran 14.0.2.144; Optimisation: fast
 MATHLIBS: Intel MKL(11.3.2) (LAPACK version 3.5.0)
 FFT Lib : fftw3 version fftw-3.3.3-sse2-avx
 Fundamental constants values: CODATA 2010

 Run started: Wed, 30 Mar 2016 12:36:19 +0100
 |  D D D D    F F F F F  P P P P     T T T T T    |
 |  D       D  F          P       P       T        |
 |  D       D  F F F F    P P P P         T        |
 |  D       D  F          P               T        |
 |  D D D D    F          P               T        |
 | Welcome to Castep Linear Response (DFPT)        |
 | Copyright (c) 2006 - 2015                       |
 | Please cite the following publications in all   |
 | work arising from your use of CASTEP LR.        |
 | K. Refson, S. J. Clark and P. R. Tulip          |
 | Variational density functional perturbation     |
 | theory for dielectrics and lattice dynamics     |
 | Phys. Rev. B 73(15), 155114 (2006)              |

 Pseudo atomic calculation performed for O 2s2 2p4

 Converged in 38 iterations to a total energy of -422.6994 eV

[...]

 Calculation parallelised over 12 processes.
 Data is distributed by G-vector(12-way)

 ************************************ Title ************************************

 ***************************** General Parameters ******************************

 output verbosity                               : normal  (1)
 write checkpoint data to                       : Quartz.check
 type of calculation                            : Phonon followed by E-field
 stress calculation                             : off
 density difference calculation                 : off
 electron localisation func (ELF) calculation   : off
 Hirshfeld analysis                             : off
 unlimited duration calculation
 timing information                             : on
 write final potential to formatted file        : off
 write final density to formatted file          : off
 write BibTeX reference list                    : on
 write OTFG pseudopotential files               : on
 checkpoint writing                             : both castep_bin and check files
 random number generator seed                   : randomised (123619185)

 *********************** Exchange-Correlation Parameters ***********************

 using functional                               : Local Density Approximation
 DFT+D: Semi-empirical dispersion correction    : off

 ************************* Pseudopotential Parameters **************************

 pseudopotential representation                 : reciprocal space
 <beta|phi> representation                      : reciprocal space
 spin-orbit coupling                            : off

 **************************** Basis Set Parameters *****************************

 basis set accuracy                             : FINE
 finite basis set correction                    : none

 **************************** Electronic Parameters ****************************

 number of  electrons                           :  48.00
 net charge of system                           :  0.000
 treating system as non-spin-polarized
 number of bands                                :         24

 ********************* Electronic Minimization Parameters **********************

 Method: Treating system as non-metallic,
         and number of  SD  steps               :          1
         and number of  CG  steps               :          4

 total energy / atom convergence tol.           : 0.2219E-09   eV
 max force / atom convergence tol.              : ignored
 periodic dipole correction                     : NONE

 *********************** Population Analysis Parameters ************************

 Population analysis with cutoff                :  3.000       A

 ****************************** Phonon Parameters ******************************

 phonon calculation method                      : linear response
 phonon convergence tolerance                   : 0.1000E-04   eV/A**2
 preconditioning scheme                         : TPA
 fine phonon calculation method                 : interpolation
 non-periodic force constant method             : Weighted cumulant sum
 acoustic phonon sum rule                       : correct D(q) in recip-space
 Born effective charges                         : calculated
 Born charge sum rule                           : explicitly enforced
 Raman intensities                              : not calculated
 phonon k-points                                : use reduced set
 phonon DOS                                     : not calculated
 no timed backups

 ***************************** E-Field Parameters ******************************

 E-field convergence tolerance                  : 0.1000E-04   A**3
 band convergence tolerance                     : 0.1000E-08   eV

                                      Unit Cell
        Real Lattice(A)                      Reciprocal Lattice(1/A)
   2.4240724  -4.1986165   0.0000000        1.2959979  -0.7482447   0.0000000
   2.4240724   4.1986165   0.0000000        1.2959979   0.7482447   0.0000000
   0.0000000   0.0000000   5.3496032        0.0000000   0.0000000   1.1745143

                       Lattice parameters(A)       Cell Angles
                    a =    4.848145          alpha =   90.000000
                    b =    4.848145          beta  =   90.000000
                    c =    5.349603          gamma =  120.000000

                       Current cell volume =  108.893850       A**3

                                     Cell Contents
                         Total number of ions in cell =    9
                      Total number of species in cell =    2
                        Max number of any one species =    6

            x  Element    Atom        Fractional coordinates of atoms  x
            x            Number           u          v          w      x
            x  O            1         0.135406   0.411595   0.112470   x
            x  O            2        -0.411595  -0.276189   0.779137   x
            x  O            3         0.276189  -0.135406   0.445804   x
            x  O            4         0.411595   0.135406  -0.112470   x
            x  O            5        -0.276189  -0.411595   0.220863   x
            x  O            6        -0.135406   0.276189   0.554196   x
            x  Si           1         0.464396   0.464396   0.000000   x
            x  Si           2        -0.464396   0.000000   0.666667   x
            x  Si           3         0.000000  -0.464396   0.333333   x

                         No user defined ionic velocities

                                   Details of Species

                               Mass of species in AMU
                                    O   15.9994000
                                    Si   28.0855000

                          Electric Quadrupole Moment (Barn)
                                    O   -0.0255800 Isotope 17
                                    Si    1.0000000 No Isotope Defined

                          Files used for pseudopotentials:
                                    O O_00_OP.recpot
                                    Si Si_00_OP.recpot

                              k-Points For BZ Sampling
                       MP grid size for SCF calculation is  3  3  3
                            with an offset of   0.000  0.000  0.000
                       Number of kpoints used =             7

                               Symmetry and Constraints

                      Maximum deviation from symmetry = 0.296963E-14     ANG

                      Number of symmetry operations   =           6
                      Number of ionic constraints     =           3
                      Point group of crystal =    19: D3, 32, 3 2
                      Space group of crystal =   154: P3_221, P 32 2"

             Set iprint > 1 for details on symmetry rotations/translations

                         Centre of mass is constrained
             Set iprint > 1 for details of linear ionic constraints

                         Number of cell constraints= 4
                         Cell constraints are:  1 1 3 0 0 0

                         External pressure/stress (GPa)
                          0.00000   0.00000   0.00000
                                    0.00000   0.00000
                                              0.00000

Final energy =  -2921.160633901     eV
(energy not corrected for finite basis set)

Writing analysis data to Quartz.castep_bin

Writing model to Quartz.check

 Efield perturbation    1:  X                                            24.88s
  Parallel strategy changed for perturbation using 10 k-points
  Data is distributed by G-vector(1-way) and k-point(10-way) and band(1-way)
  | Requirements will fluctuate during execution and may exceed these estimates |

 Efield perturbation    2:  Z                                            48.00s
  Parallel strategy changed for perturbation using 8 k-points
  Data is distributed by G-vector(1-way) and k-point(8-way) and band(1-way)
 Perturbation    1 (of    6): O     1 X at q=( 0.000, 0.000, 0.000):     74.95s
  Parallel strategy changed for perturbation using 14 k-points
  Data is distributed by G-vector(6-way) and k-point(2-way) and band(1-way)
  | Requirements will fluctuate during execution and may exceed these estimates |
 Perturbation    2 (of    6): Si    1 X at q=( 0.000, 0.000, 0.000):    109.03s
  Parallel strategy changed for perturbation using 10 k-points
  Data is distributed by G-vector(1-way) and k-point(10-way) and band(1-way)
  | Requirements will fluctuate during execution and may exceed these estimates |
 Perturbation    3 (of    6): O     1 Y at q=( 0.000, 0.000, 0.000):    133.14s
  Parallel strategy changed for perturbation using 14 k-points
  Data is distributed by G-vector(6-way) and k-point(2-way) and band(1-way)
 Perturbation    4 (of    6): Si    1 Y at q=( 0.000, 0.000, 0.000):    166.97s
 Perturbation    5 (of    6): O     1 Z at q=( 0.000, 0.000, 0.000):    197.11s
 Perturbation    6 (of    6): Si    1 Z at q=( 0.000, 0.000, 0.000):    230.82s

 Phonon calculation: q-point   1 (of    7) (-0.333,-0.333, 0.000):      261.18s
 Perturbation    1 (of    6): O     1 X at q=(-0.333,-0.333, 0.000):    261.21s
  Parallel strategy changed for perturbation using 27 k-points
  Data is distributed by G-vector(1-way) and k-point(9-way) and band(1-way)
  | Requirements will fluctuate during execution and may exceed these estimates |
 Perturbation    2 (of    6): Si    1 X at q=(-0.333,-0.333, 0.000):    323.77s
  Parallel strategy changed for perturbation using 15 k-points
  Data is distributed by G-vector(2-way) and k-point(5-way) and band(1-way)
 Perturbation    3 (of    6): O     1 Y at q=(-0.333,-0.333, 0.000):    363.90s
  Parallel strategy changed for perturbation using 27 k-points
  Data is distributed by G-vector(1-way) and k-point(9-way) and band(1-way)
 Perturbation    4 (of    6): Si    1 Y at q=(-0.333,-0.333, 0.000):    420.58s
[...]
 +     1      72.827241   a                                                   +
 +     2      87.887267   a                                                   +
 +     3      90.828091   a                                                   +
 +     4     188.603708   a                                                   +
 +     5     189.161343   a                                                   +
 +     6     252.301758   a                                                   +
 +     7     295.571513   a                                                   +
 +     8     299.968498   a                                                   +
 +     9     301.013949   a                                                   +
 +    10     329.009105   a                                                   +
 +    11     367.676692   a                                                   +
 +    12     373.854845   a                                                   +
 +    13     417.954468   a                                                   +
 +    14     419.260182   a                                                   +
 +    15     454.231728   a                                                   +
 +    16     543.210295   a                                                   +
 +    17     639.272729   a                                                   +
 +    18     650.458233   a                                                   +
 +    19     827.572107   a                                                   +
 +    20     828.809193   a                                                   +
 +    21     831.623356   a                                                   +
 +    22    1073.004879   a                                                   +
 +    23    1073.445493   a                                                   +
 +    24    1073.567735   a                                                   +
 +    25    1153.415178   a                                                   +
 +    26    1172.785932   a                                                   +
 +    27    1175.193268   a                                                   +
 +        Character table from group theory analysis of eigenvectors          +
 +                           Point Group =  19, D3                            +
 +  Rep  Mul |    E   2                                                       +
 + a      27 |    1   0                                                       +
 +  q-pt=  469 ( -0.318182  0.659091  0.500000)     0.0021231423              +
 +  Acoustic sum rule correction <   0.149829 cm-1 applied                    +
 +     N      Frequency irrep.                                                +
 +                (cm-1)                                                      +
 +     1      73.088272   a                                                   +
 +     2      88.253016   a                                                   +
 +     3      90.135771   a                                                   +
 +     4     188.697747   a                                                   +
 +     5     189.131965   a                                                   +
 +     6     252.551662   a                                                   +
 +     7     296.495261   a                                                   +
 +     8     299.486553   a                                                   +
 +     9     300.512583   a                                                   +
 +    10     328.930743   a                                                   +
 +    11     368.672197   a                                                   +
 +    12     372.770750   a                                                   +
 +    13     418.176391   a                                                   +
 +    14     419.034247   a                                                   +
 +    15     454.267001   a                                                   +
 +    16     543.269842   a                                                   +
 +    17     641.049807   a                                                   +
 +    18     648.521319   a                                                   +
 +    19     828.135477   a                                                   +
 +    20     829.131793   a                                                   +
 +    21     830.919267   a                                                   +
 +    22    1073.117511   a                                                   +
 +    23    1073.413113   a                                                   +
 +    24    1073.494877   a                                                   +
 +    25    1153.373341   a                                                   +
 +    26    1173.167258   a                                                   +
 +    27    1174.811815   a                                                   +
 +        Character table from group theory analysis of eigenvectors          +
 +                           Point Group =  19, D3                            +
 +  Rep  Mul |    E   2                                                       +
 + a      27 |    1   0                                                       +
 +  q-pt=  470 ( -0.325758  0.662879  0.500000)     0.0021231423              +
 +  Acoustic sum rule correction <   0.165380 cm-1 applied                    +
 +     N      Frequency irrep.                                                +
 +                (cm-1)                                                      +
 +     1      73.248263   a                                                   +
 +     2      88.622127   a                                                   +
 +     3      89.564917   a                                                   +
 +     4     188.788895   a                                                   +
 +     5     189.077633   a                                                   +
 +     6     252.701093   a                                                   +
 +     7     297.420119   a                                                   +
 +     8     299.123426   a                                                   +
 +     9     299.913533   a                                                   +
 +    10     328.892452   a                                                   +
 +    11     369.683043   a                                                   +
 +    12     371.701808   a                                                   +
 +    13     418.391292   a                                                   +
 +    14     418.817094   a                                                   +
 +    15     454.288677   a                                                   +
 +    16     543.303897   a                                                   +
 +    17     642.869587   a                                                   +
 +    18     646.606730   a                                                   +
 +    19     828.678566   a                                                   +
 +    20     829.359840   a                                                   +
 +    21     830.257731   a                                                   +
 +    22    1073.228497   a                                                   +
 +    23    1073.381737   a                                                   +
 +    24    1073.419255   a                                                   +
 +    25    1153.348314   a                                                   +
 +    26    1173.565949   a                                                   +
 +    27    1174.413092   a                                                   +
 +        Character table from group theory analysis of eigenvectors          +
 +                           Point Group =  19, D3                            +
 +  Rep  Mul |    E   2                                                       +
 + a      27 |    1   0                                                       +
 +  q-pt=  471 ( -0.333333  0.666667  0.500000)     0.0021231423              +
 +  Acoustic sum rule correction <   0.198466 cm-1 applied                    +
 +     N      Frequency irrep.                                                +
 +                (cm-1)                                                      +
 +     1      73.294666   a                                                   +
 +     2      89.063262   b                                                   +
 +     3      89.063262   b                                                   +
 +     4     188.938767   b                                                   +
 +     5     188.938767   b                                                   +
 +     6     252.747938   c                                                   +
 +     7     297.907466   c                                                   +
 +     8     299.269724   b                                                   +
 +     9     299.269724   b                                                   +
 +    10     328.882929   a                                                   +
 +    11     370.681342   b                                                   +
 +    12     370.681342   b                                                   +
 +    13     418.603763   b                                                   +
 +    14     418.603763   b                                                   +
 +    15     454.296403   a                                                   +
 +    16     543.314331   c                                                   +
 +    17     644.722769   b                                                   +
 +    18     644.722769   b                                                   +
 +    19     829.198078   b                                                   +
 +    20     829.198078   b                                                   +
 +    21     829.936588   a                                                   +
 +    22    1073.314657   a                                                   +
 +    23    1073.357918   b                                                   +
 +    24    1073.357918   b                                                   +
 +    25    1153.340266   c                                                   +
 +    26    1173.989471   b                                                   +
 +    27    1173.989471   b                                                   +
 +        Character table from group theory analysis of eigenvectors          +
 +                           Point Group =  19, D3                            +
 +  Rep  Mul |    E   3   2                                                   +
 + a       5 |    1  -1  -1                                                   +
 + b       9 |    2   1   0                                                   +
 + c       4 |    1  -1   1                                                   +

        Optical Permittivity (f->infinity)             DC Permittivity (f=0)
         2.49590     0.00000     0.00000         4.68009     0.00000     0.00000
         0.00000     2.49590     0.00000         0.00000     4.68009    -0.00000
         0.00000     0.00000     2.52650         0.00000    -0.00000     4.88648

                                    Polarisabilities (A**3)
                Optical (f->infinity)                       Static  (f=0)
        12.96274     0.00000     0.00000        31.88982     0.00000     0.00000
         0.00000    12.96274     0.00000         0.00000    31.88982    -0.00000
         0.00000     0.00000    13.22789         0.00000    -0.00000    33.67827
                   Born Effective Charges
   O       1        -1.32398     0.44654     0.24808
                     0.50209    -2.02123    -0.73942
                     0.31384    -0.69780    -1.73542
   O       2        -1.43615    -0.56685     0.51632
                    -0.51130    -1.90907     0.58456
                     0.44739     0.62069    -1.73542
   O       3        -2.25769     0.03698    -0.76440
                     0.09254    -1.08753     0.15486
                    -0.76123     0.07711    -1.73542
   O       4        -1.32398    -0.44654    -0.24808
                    -0.50209    -2.02123    -0.73942
                    -0.31384    -0.69780    -1.73542
   O       5        -1.43615     0.56685    -0.51632
                     0.51130    -1.90907     0.58456
                    -0.44739     0.62069    -1.73542
   O       6        -2.25769    -0.03698     0.76440
                    -0.09254    -1.08753     0.15486
                     0.76123     0.07711    -1.73542
   Si      1         3.02466     0.00000     0.00000
                     0.00000     3.66577     0.27455
                     0.00000    -0.31496     3.47084
   Si      2         3.50549     0.27761    -0.23776
                     0.27761     3.18494    -0.13727
                     0.27276     0.15748     3.47084
   Si      3         3.50549    -0.27761     0.23776
                    -0.27761     3.18494    -0.13727
                    -0.27276     0.15748     3.47084

 ***************** Symmetrised Forces *****************
 *            Cartesian components (eV/A)             *
 *                   x            y            z      *
 * O         1     -0.00623      0.01433      0.01062 *
 * O         2     -0.00930     -0.01256      0.01062 *
 * O         3      0.01553     -0.00177      0.01062 *
 * O         4     -0.00623     -0.01433     -0.01062 *
 * O         5     -0.00930      0.01256     -0.01062 *
 * O         6      0.01553      0.00177     -0.01062 *
 * Si        1      0.03655      0.00000      0.00000 *
 * Si        2     -0.01827      0.03165      0.00000 *
 * Si        3     -0.01827     -0.03165     -0.00000 *

[...]

 Pseudo atomic calculation performed for Si 3s2 3p2

 Converged in 25 iterations to a total energy of -101.9153 eV

Charge spilling parameter for spin component 1 = 1.25%

     Atomic Populations (Mulliken)
Species   Ion     s      p      d      f     Total  Charge (e)
  O        1     1.82   5.36   0.00   0.00   7.18    -1.18
  O        2     1.82   5.36   0.00   0.00   7.18    -1.18
  O        3     1.82   5.36   0.00   0.00   7.18    -1.18
  O        4     1.82   5.36   0.00   0.00   7.18    -1.18
  O        5     1.82   5.36   0.00   0.00   7.18    -1.18
  O        6     1.82   5.36   0.00   0.00   7.18    -1.18
  Si       1     0.54   1.10   0.00   0.00   1.64     2.36
  Si       2     0.54   1.10   0.00   0.00   1.64     2.36
  Si       3     0.54   1.10   0.00   0.00   1.64     2.36

            Bond              Population      Length (A)
          O 5 -- Si 3              0.53        1.60101
          O 2 -- Si 2              0.53        1.60101
          O 4 -- Si 1              0.53        1.60101
          O 1 -- Si 1              0.53        1.60101
          O 6 -- Si 2              0.53        1.60101
          O 3 -- Si 3              0.53        1.60101
          O 4 -- Si 2              0.54        1.60720
          O 1 -- Si 3              0.54        1.60720
          O 5 -- Si 1              0.54        1.60720
          O 2 -- Si 1              0.54        1.60720
          O 3 -- Si 2              0.54        1.60720
          O 6 -- Si 3              0.54        1.60720
          O 2 -- O 4              -0.19        2.60066
          O 1 -- O 5              -0.19        2.60066
          O 3 -- O 6              -0.19        2.60066
          O 1 -- O 4              -0.09        2.61282
          O 2 -- O 6              -0.09        2.61282
          O 3 -- O 5              -0.09        2.61282
          O 2 -- O 5              -0.10        2.62239
          O 3 -- O 4              -0.10        2.62239
          O 1 -- O 6              -0.10        2.62239
          O 4 -- O 6              -0.09        2.64007
          O 1 -- O 3              -0.09        2.64007
          O 4 -- O 5              -0.09        2.64007
          O 5 -- O 6              -0.09        2.64007
          O 2 -- O 3              -0.09        2.64007
          O 1 -- O 2              -0.09        2.64007

Writing analysis data to Quartz.castep_bin

Writing model to Quartz.check

 A BibTeX formatted list of references used in this run has been written to
 Quartz.bib

Initialisation time =      0.57 s
Calculation time    =      3.49 s
Finalisation time   =      0.16 s
Total time          =      4.22 s

Overall parallel efficiency rating: Good (75%)

Data was distributed by:-
G-vector (12-way); efficiency rating: Very good (84%)

Parallel notes:
1) Calculation only took 4.1 s, so efficiency estimates may be inaccurate.